c Circuit-CNF generated by TG-PRO v1.0 (c) Huan Chen and Joao Marques-Silva
p cnf 186 463
1 2 0
-1 -2 0
3 4 0
-3 -4 0
5 6 0
-5 -6 0
7 8 0
-7 -8 0
9 10 0
-9 -10 0
11 12 0
-11 -12 0
-13 -14 0
-13 -15 0
13 14 15 0
-16 -17 0
-16 -15 0
16 17 15 0
-18 -19 0
-18 -15 0
18 19 15 0
-20 -21 0
-20 -22 0
20 21 22 0
-23 -24 0
-23 -25 0
23 24 25 0
-26 -27 0
-26 -15 0
26 27 15 0
-28 -29 0
-28 -30 0
28 29 30 0
-31 -32 0
-31 -33 0
31 32 33 0
-34 -35 0
-34 -36 0
34 35 36 0
-37 -38 0
-37 -39 0
37 38 39 0
-40 -41 0
-40 -42 0
40 41 42 0
-43 -44 0
-43 -45 0
43 44 45 0
-46 -47 0
-46 -15 0
46 47 15 0
-48 -49 0
-48 -15 0
48 49 15 0
15 50 0
-15 -50 0
51 15 0
-51 -15 0
52 14 0
-52 -14 0
53 54 0
-53 -54 0
55 56 0
-55 -56 0
57 58 0
-57 -58 0
59 60 0
-59 -60 0
61 62 0
-61 -62 0
63 58 0
-63 -58 0
64 54 0
-64 -54 0
65 56 0
-65 -56 0
66 67 0
-66 -67 0
68 69 0
-68 -69 0
6 70 0
-6 -70 0
12 71 0
-12 -71 0
72 14 0
-72 -14 0
73 58 0
-73 -58 0
74 70 0
-74 -70 0
75 56 0
-75 -56 0
76 71 0
-76 -71 0
77 60 0
-77 -60 0
78 79 0
-78 -79 0
80 54 0
-80 -54 0
-30 -81 0
-30 -82 0
30 81 82 0
83 30 0
-83 -30 0
84 85 0
-84 -85 0
2 79 0
-2 -79 0
8 86 0
-8 -86 0
87 88 0
-87 -88 0
89 87 0
-89 -87 0
90 67 0
-90 -67 0
88 91 0
-88 -91 0
92 93 0
-92 -93 0
94 92 0
-94 -92 0
95 62 0
-95 -62 0
50 96 0
-50 -96 0
93 97 0
-93 -97 0
4 98 0
-4 -98 0
10 85 0
-10 -85 0
-99 51 0
-99 59 0
99 -51 -59 0
-100 61 0
-100 51 0
100 -61 -51 0
-101 102 0
-101 54 0
101 -102 -54 0
-103 14 0
-103 58 0
103 -14 -58 0
-104 52 0
-104 57 0
104 -52 -57 0
-105 106 0
-105 56 0
105 -106 -56 0
-107 52 0
-107 55 0
107 -52 -55 0
-108 57 0
-108 55 0
108 -57 -55 0
109 110 0
109 14 0
-109 -110 -14 0
-21 53 0
-21 109 0
21 -53 -109 0
-111 -59 0
-111 -53 0
111 59 53 0
-112 113 0
-112 111 0
112 -113 -111 0
114 115 0
114 14 0
-114 -115 -14 0
-116 117 0
-116 114 0
116 -117 -114 0
-118 -60 0
-118 -64 0
118 60 64 0
-119 120 0
-119 118 0
119 -120 -118 0
121 122 0
121 118 0
-121 -122 -118 0
-123 68 0
-123 121 0
123 -68 -121 0
-81 124 0
-81 118 0
81 -124 -118 0
-82 68 0
-82 121 0
82 -68 -121 0
-125 126 0
-125 86 0
125 -126 -86 0
-127 128 0
-127 60 0
127 -128 -60 0
-129 60 0
-129 74 0
129 -60 -74 0
-130 80 0
-130 77 0
130 -80 -77 0
-131 75 0
-131 80 0
131 -75 -80 0
-132 76 0
-132 54 0
132 -76 -54 0
-133 77 0
-133 54 0
133 -77 -54 0
-35 134 0
-35 56 0
35 -134 -56 0
-135 -125 0
-135 -127 0
135 125 127 0
-38 136 0
-38 135 0
38 -136 -135 0
137 138 0
137 60 0
-137 -138 -60 0
-41 83 0
-41 137 0
41 -83 -137 0
-42 14 0
-42 30 0
42 -14 -30 0
-44 84 0
-44 60 0
44 -84 -60 0
-139 89 0
-139 90 0
139 -89 -90 0
-140 87 0
-140 67 0
140 -87 -67 0
-141 94 0
-141 95 0
141 -94 -95 0
-142 92 0
-142 62 0
142 -92 -62 0
143 -144 0
143 -53 0
-143 144 53 0
145 -146 0
145 -56 0
-145 146 56 0
147 -148 0
147 -77 0
-147 148 77 0
149 -80 0
149 -79 0
-149 80 79 0
150 -80 0
150 -60 0
-150 80 60 0
151 -152 0
151 -54 0
-151 152 54 0
153 -75 0
153 -98 0
-153 75 98 0
154 -80 0
154 -98 0
-154 80 98 0
155 -156 0
155 -86 0
-155 156 86 0
157 -83 0
157 -72 0
-157 83 72 0
158 -80 0
158 -60 0
-158 80 60 0
159 -58 0
159 -60 0
-159 58 60 0
160 -56 0
160 -54 0
-160 56 54 0
161 -162 0
161 -77 0
-161 162 77 0
163 -164 0
163 -60 0
-163 164 60 0
165 -166 0
165 -71 0
-165 166 71 0
22 167 0
22 51 0
-22 -167 -51 0
33 168 0
33 83 0
-33 -168 -83 0
36 169 0
36 83 0
-36 -169 -83 0
39 155 0
39 157 0
-39 -155 -157 0
45 170 0
45 83 0
-45 -170 -83 0
-25 -99 0
-25 -100 0
25 99 100 0
171 -101 0
171 -103 0
-171 101 103 0
17 -171 0
17 -104 0
-17 171 104 0
172 -105 0
172 -107 0
-172 105 107 0
19 -172 0
19 -108 0
-19 172 108 0
24 -112 0
24 -116 0
-24 112 116 0
27 -119 0
27 -123 0
-27 119 123 0
173 -129 0
173 -130 0
-173 129 130 0
29 -173 0
29 -131 0
-29 173 131 0
32 -132 0
32 -133 0
-32 132 133 0
47 -139 0
47 -140 0
-47 139 140 0
49 -141 0
49 -142 0
-49 141 142 0
-102 14 0
-102 55 0
102 -14 -55 0
-106 14 0
-106 58 0
106 -14 -58 0
-110 56 0
-110 58 0
110 -56 -58 0
-174 55 0
-174 57 0
174 -55 -57 0
-113 174 0
-113 14 0
113 -174 -14 0
-175 54 0
-175 55 0
175 -54 -55 0
-115 175 0
-115 57 0
115 -175 -57 0
-117 59 0
-117 61 0
117 -59 -61 0
-176 65 0
-176 58 0
176 -65 -58 0
-120 176 0
-120 66 0
120 -176 -66 0
-177 65 0
-177 63 0
177 -65 -63 0
-122 177 0
-122 67 0
122 -177 -67 0
-178 65 0
-178 58 0
178 -65 -58 0
-124 178 0
-124 66 0
124 -178 -66 0
-126 56 0
-126 60 0
126 -56 -60 0
-128 73 0
-128 75 0
128 -73 -75 0
-134 78 0
-134 60 0
134 -78 -60 0
-136 80 0
-136 83 0
136 -80 -83 0
-179 151 0
-179 153 0
179 -151 -153 0
-138 179 0
-138 154 0
138 -179 -154 0
180 -52 0
180 -57 0
-180 52 57 0
144 -180 0
144 -55 0
-144 180 55 0
146 -52 0
146 -58 0
-146 52 58 0
181 -58 0
181 -56 0
-181 58 56 0
148 -181 0
148 -54 0
-148 181 54 0
152 -73 0
152 -56 0
-152 73 56 0
182 -30 0
182 -80 0
-182 30 80 0
156 -182 0
156 -77 0
-156 182 77 0
183 -58 0
183 -56 0
-183 58 56 0
162 -183 0
162 -54 0
-162 183 54 0
164 -73 0
164 -75 0
-164 73 75 0
166 -75 0
166 -77 0
-166 75 77 0
-167 143 0
-167 145 0
167 -143 -145 0
-184 161 0
-184 163 0
184 -161 -163 0
-168 184 0
-168 165 0
168 -184 -165 0
-185 147 0
-185 149 0
185 -147 -149 0
-169 185 0
-169 150 0
169 -185 -150 0
-186 158 0
-186 159 0
186 -158 -159 0
-170 186 0
-170 160 0
170 -186 -160 0
